max: 1*y ;
1.0*y 2.8*x <= 12.639999999999999;
1.9999999999999998*y -1.0*x >= 0.19999999999999973;
0.9000000000000001*y -1.2000000000000002*x -99999*o1 <= -1.2600000000000005;
0.09999999999999964*y -2.5999999999999996*x -99999*o2 <= -6.800000000000001;
1*o1 1*o2 < 1;
x >= 0;
y >= 0;
o1 <= 1;
o2 <= 1;
int y;
int x;
int o1;
int o2;
